1103
1103
1054
1054
1034
946
1054
1054
1054
1005
935
935
935
1046
935
1043
1010
1010
1010
1010
1010
1010
988
1059
1059
1078
1073
1055
884
884
884
884
884
884
1028
1028
1028
982
982
1080
1077
993
993
993
993
934
1011
1022
1022
1022
963
963
943
963
827
827
963
951
976
976
976
961
1007
997
997
997
997
1022
1019
1005
927
948
1025
1025
1025
1027
899
899
899
899
899
899
944
978
978
912
912
905
905
905
905
905
905
905
905
809
809
905
968
966
